Problem:    
Rows:       260
Columns:    89 (72 integer, 72 binary)
Non-zeros:  974
Status:     INTEGER OPTIMAL
Objective:  value = 25.551938 (MINimum)

   No.   Row name        Activity     Lower bound   Upper bound
------ ------------    ------------- ------------- -------------
     1 r.5                   25.5519             0               
     2 r.6                    14.728      -991.001               
     3 r.7                   1025.55             0               
     4 r.8                  -988.774      -992.541               
     5 r.9                   25.5519             0               
     6 r.10                   19.947      -991.247               
     7 r.11                  1025.55             0               
     8 r.12                 -980.053      -992.267               
     9 r.13                  1025.55             0               
    10 r.14                 -987.339      -999.003               
    11 r.15                  25.5519             0               
    12 r.16                  14.6823      -998.064               
    13 r.17                  1025.55             0               
    14 r.18                  -989.37      -998.288               
    15 r.19                  25.5519             0               
    16 r.20                 -993.237      -997.004               
    17 r.21                  1025.55             0               
    18 r.22                 -991.081      -996.027               
    19 r.23                  25.5519             0               
    20 r.24                 -992.406      -996.173               
    21 r.25                  1025.55             0               
    22 r.26                 -999.334      -999.334               
    23 r.27                  25.5519             0               
    24 r.28                   6.7303      -999.194               
    25 r.29                  25.5519             0               
    26 r.30                  25.5519      -987.926               
    27 r.31                  1025.55             0               
    28 r.32                 -974.448      -994.395               
    29 r.33                  1025.55             0               
    30 r.34                 -974.448      -988.143               
    31 r.35                  25.5519             0               
    32 r.36                  25.5519      -994.977               
    33 r.37                        1             1             = 
    34 r.38                        1             1             = 
    35 r.39                        1             1             = 
    36 r.40                        1             1             = 
    37 r.41                        1             1             = 
    38 r.42                        1             1             = 
    39 r.43                        1             1             = 
    40 r.44                        1             1             = 
    41 r.45                     1000             2               
    42 r.46                    -1000         -1001               
    43 r.47                  2006.25      -991.247               
    44 r.48                        2             2               
    45 r.49                       -2         -1001               
    46 r.50                 -992.267      -992.267               
    47 r.51                     1001             2               
    48 r.52                    -1001         -1001               
    49 r.53                  1998.97      -999.003               
    50 r.54                     1001             2               
    51 r.55                    -1001         -1001               
    52 r.56                  2002.47      -998.064               
    53 r.57                     1001             2               
    54 r.58                    -1001         -1001               
    55 r.59                  1996.94      -998.288               
    56 r.60                     1001             2               
    57 r.61                    -1001         -1001               
    58 r.62                  994.549      -997.004               
    59 r.63                     1001             2               
    60 r.64                    -1001         -1001               
    61 r.65                  1995.22      -996.027               
    62 r.66                     1001             2               
    63 r.67                    -1001         -1001               
    64 r.68                   995.38      -996.173               
    65 r.69                  10.9612      -991.001               
    66 r.70                 -992.541      -992.541               
    67 r.71                  10.9612      -991.001               
    68 r.72                 -992.541      -992.541               
    69 r.73                  11.8575      -987.926               
    70 r.74                 -988.143      -994.395               
    71 r.75                  13.3383      -987.926               
    72 r.76                 -986.662      -994.395               
    73 r.77                 -988.143      -988.143               
    74 r.78                  11.8575      -994.977               
    75 r.79                 -986.662      -988.143               
    76 r.80                  13.3383      -994.977               
    77 r.81                     1000             2               
    78 r.82                    -1000         -1001               
    79 r.83                  1994.78         8.999               
    80 r.84                        2             2               
    81 r.85                       -2         -1001               
    82 r.86                  991.279       7.45896               
    83 r.87                     1001             2               
    84 r.88                    -1001         -1001               
    85 r.89                  1992.71      -999.003               
    86 r.90                     1001             2               
    87 r.91                    -1001         -1001               
    88 r.92                  1994.74      -998.064               
    89 r.93                     1001             2               
    90 r.94                    -1001         -1001               
    91 r.95                  1990.68      -998.288               
    92 r.96                     1001             2               
    93 r.97                    -1001         -1001               
    94 r.98                  986.816      -997.004               
    95 r.99                     1001             2               
    96 r.100                   -1001         -1001               
    97 r.101                 1988.97      -996.027               
    98 r.102                    1001             2               
    99 r.103                   -1001         -1001               
   100 r.104                 987.647      -996.173               
   101 r.105                 16.1802      -991.247               
   102 r.106                 -983.82      -992.267               
   103 r.107                 16.1802      -991.247               
   104 r.108                 -983.82      -992.267               
   105 r.109                 5.60493      -987.926               
   106 r.110                -994.395      -994.395               
   107 r.111                 5.60493      -987.926               
   108 r.112                -994.395      -994.395               
   109 r.113                    1001             2               
   110 r.114                   -1001         -1001               
   111 r.115                  2005.6      -988.143               
   112 r.116                    1001             2               
   113 r.117                   -1001         -1001               
   114 r.118                  2005.6      -994.977               
   115 r.119                    1001             2               
   116 r.120                   -1001         -1001               
   117 r.121                 2001.03         8.999               
   118 r.122                    1001             2               
   119 r.123                   -1001         -1001               
   120 r.124                 1997.53       7.45896               
   121 r.125                    1001             2               
   122 r.126                   -1001         -1001               
   123 r.127                 2006.25       8.75345               
   124 r.128                    1001             2               
   125 r.129                   -1001         -1001               
   126 r.130                 2006.25       7.73342               
   127 r.131                       2             2               
   128 r.132                      -2         -1001               
   129 r.133                -3.06413      -998.288               
   130 r.134                    1000             2               
   131 r.135                   -1000         -1001               
   132 r.136                 993.069      -997.004               
   133 r.137                       2             2               
   134 r.138                      -2         -1001               
   135 r.139                -4.77573      -996.027               
   136 r.140                    1000             2               
   137 r.141                   -1000         -1001               
   138 r.142                 993.899      -996.173               
   139 r.143                -991.106      -999.003               
   140 r.144                 10.9155      -998.064               
   141 r.145                -991.106      -999.003               
   142 r.146                 10.9155      -998.064               
   143 r.147                 11.8575      -987.926               
   144 r.148                -988.143      -994.395               
   145 r.149                 11.8575      -987.926               
   146 r.150                -988.143      -994.395               
   147 r.151                -988.143      -988.143               
   148 r.152                 11.8575      -994.977               
   149 r.153                -988.143      -988.143               
   150 r.154                 11.8575      -994.977               
   151 r.155                    1001             2               
   152 r.156                   -1001         -1001               
   153 r.157                 2003.06         8.999               
   154 r.158                    1001             2               
   155 r.159                   -1001         -1001               
   156 r.160                 3005.45       7.45896               
   157 r.161                    1001             2               
   158 r.162                   -1001         -1001               
   159 r.163                 2008.28       8.75345               
   160 r.164                    1001             2               
   161 r.165                   -1001         -1001               
   162 r.166                 3014.17       7.73342               
   163 r.167                       2             2               
   164 r.168                      -2         -1001               
   165 r.169                   0.997         0.997               
   166 r.170                    1000             2               
   167 r.171                   -1000         -1001               
   168 r.172                 3008.91       1.93557               
   169 r.173                       2             2               
   170 r.174                      -2         -1001               
   171 r.175                -2.74517      -996.027               
   172 r.176                    1000             2               
   173 r.177                   -1000         -1001               
   174 r.178                 2001.82      -996.173               
   175 r.179                -993.136      -998.288               
   176 r.180                -997.004      -997.004               
   177 r.181                -993.136      -998.288               
   178 r.182                -997.004      -997.004               
   179 r.183                 13.8881      -987.926               
   180 r.184                -986.112      -994.395               
   181 r.185                 1019.78      -987.926               
   182 r.186                 19.7768      -994.395               
   183 r.187                       2             2               
   184 r.188                      -2         -1001               
   185 r.189                -986.112      -988.143               
   186 r.190                    1000             2               
   187 r.191                   -1000         -1001               
   188 r.192                 3019.78      -994.977               
   189 r.193                    1001             2               
   190 r.194                   -1001         -1001               
   191 r.195                 2005.81         8.999               
   192 r.196                    1001             2               
   193 r.197                   -1001         -1001               
   194 r.198                 3003.63       7.45896               
   195 r.199                    1001             2               
   196 r.200                   -1001         -1001               
   197 r.201                 2011.03       8.75345               
   198 r.202                    1001             2               
   199 r.203                   -1001         -1001               
   200 r.204                 3012.35       7.73342               
   201 r.205                       2             2               
   202 r.206                      -2         -1001               
   203 r.207                 3.74217         0.997               
   204 r.208                    1000             2               
   205 r.209                   -1000         -1001               
   206 r.210                 3007.09       1.93557               
   207 r.211                       2             2               
   208 r.212                      -2         -1001               
   209 r.213                  1.7116        1.7116               
   210 r.214                    1000             2               
   211 r.215                   -1000         -1001               
   212 r.216                 1999.17       2.99619               
   213 r.217                -994.848      -996.027               
   214 r.218                -996.173      -996.173               
   215 r.219                -994.848      -996.027               
   216 r.220                -996.173      -996.173               
   217 r.221                    1001             2               
   218 r.222                   -1001         -1001               
   219 r.223                 2016.63      -987.926               
   220 r.224                    1001             2               
   221 r.225                   -1001         -1001               
   222 r.226                 3017.96      -994.395               
   223 r.227                -983.367      -988.143               
   224 r.228                 16.6332      -994.977               
   225 r.229                 17.9581      -988.143               
   226 r.230                 1017.96      -994.977               
   227 r.231                 21.7851      -987.926               
   228 r.232                -978.215      -994.395               
   229 r.233                 21.7851      -987.926               
   230 r.234                -978.215      -994.395               
   231 r.235                    1001             2               
   232 r.236                   -1001         -1001               
   233 r.237                 1983.37        3.9734               
   234 r.238                    1001             2               
   235 r.239                   -1001         -1001               
   236 r.240                 982.042       3.82708               
   237 r.241                    1001             2               
   238 r.242                   -1001         -1001               
   239 r.243                    2000      -988.143               
   240 r.244                    1001             2               
   241 r.245                   -1001         -1001               
   242 r.246                    2000      -994.977               
   243 r.247                    1001             2               
   244 r.248                   -1001         -1001               
   245 r.249                  1994.4       8.75345               
   246 r.250                    1001             2               
   247 r.251                   -1001         -1001               
   248 r.252                  1994.4       7.73342               
   249 r.253                       2             2               
   250 r.254                      -2         -1001               
   251 r.255                 985.078        1.7116               
   252 r.256                    1000             2               
   253 r.257                   -1000         -1001               
   254 r.258                 981.211       2.99619               
   255 r.259                    1001             2               
   256 r.260                   -1001         -1001               
   257 r.261                    2000       12.0737               
   258 r.262                    1001             2               
   259 r.263                   -1001         -1001               
   260 r.264                    2000       5.60493               

   No. Column name       Activity     Lower bound   Upper bound
------ ------------    ------------- ------------- -------------
     1 tt                    25.5519             0               
     2 s_1_1        *              0             0             1 
     3 t_1_1                 11.8575             0               
     4 s_1_8        *              1             0             1 
     5 s_1_7        *              0             0             1 
     6 s_2_1        *              1             0             1 
     7 t_2_1                 13.3383             0               
     8 s_2_8        *              0             0             1 
     9 s_2_7        *              1             0             1 
    10 s_1_2        *              0             0             1 
    11 t_1_2                 5.60493             0               
    12 s_2_2        *              1             0             1 
    13 t_2_2                 5.60493             0               
    14 s_1_3        *              1             0             1 
    15 t_1_3                 11.8575             0               
    16 s_2_3        *              0             0             1 
    17 t_2_3                 11.8575             0               
    18 s_1_4        *              1             0             1 
    19 t_1_4                 13.8881             0               
    20 s_2_4        *              0             0             1 
    21 t_2_4                 1019.78             0               
    22 s_1_5        *              1             0             1 
    23 t_1_5                 16.6332             0               
    24 s_2_5        *              0             0             1 
    25 t_2_5                 1017.96             0               
    26 s_1_6        *              1             0             1 
    27 t_1_6                 21.7851             0               
    28 s_2_6        *              0             0             1 
    29 t_2_6                 21.7851             0               
    30 t_1_7                       0             0               
    31 t_2_7                       0             0               
    32 t_1_8                       0             0               
    33 t_2_8                       0             0               
    34 r_1_1_2      *              1             0             1 
    35 u_1_1_2      *              0             0             1 
    36 r_2_1_2      *              0             0             1 
    37 u_2_1_2      *              1             0             1 
    38 r_1_1_3      *              1             0             1 
    39 u_1_1_3      *              0             0             1 
    40 r_2_1_3      *              1             0             1 
    41 u_2_1_3      *              0             0             1 
    42 r_1_1_4      *              1             0             1 
    43 u_1_1_4      *              0             0             1 
    44 r_2_1_4      *              1             0             1 
    45 u_2_1_4      *              0             0             1 
    46 r_1_1_5      *              1             0             1 
    47 u_1_1_5      *              0             0             1 
    48 r_2_1_5      *              1             0             1 
    49 u_2_1_5      *              0             0             1 
    50 r_1_2_3      *              1             0             1 
    51 u_1_2_3      *              0             0             1 
    52 r_2_2_3      *              1             0             1 
    53 u_2_2_3      *              0             0             1 
    54 r_1_2_4      *              1             0             1 
    55 u_1_2_4      *              0             0             1 
    56 r_2_2_4      *              1             0             1 
    57 u_2_2_4      *              0             0             1 
    58 r_1_2_5      *              1             0             1 
    59 u_1_2_5      *              0             0             1 
    60 r_2_2_5      *              1             0             1 
    61 u_2_2_5      *              0             0             1 
    62 r_1_2_8      *              1             0             1 
    63 u_1_2_8      *              0             0             1 
    64 r_2_2_8      *              1             0             1 
    65 u_2_2_8      *              0             0             1 
    66 r_1_3_4      *              0             0             1 
    67 u_1_3_4      *              0             0             1 
    68 r_2_3_4      *              1             0             1 
    69 u_2_3_4      *              0             0             1 
    70 r_1_3_5      *              0             0             1 
    71 u_1_3_5      *              0             0             1 
    72 r_2_3_5      *              1             0             1 
    73 u_2_3_5      *              0             0             1 
    74 r_1_4_5      *              0             0             1 
    75 u_1_4_5      *              0             0             1 
    76 r_2_4_5      *              1             0             1 
    77 u_2_4_5      *              0             0             1 
    78 r_1_4_8      *              0             0             1 
    79 u_1_4_8      *              1             0             1 
    80 r_2_4_8      *              1             0             1 
    81 u_2_4_8      *              0             0             1 
    82 r_1_5_7      *              1             0             1 
    83 u_1_5_7      *              0             0             1 
    84 r_2_5_7      *              1             0             1 
    85 u_2_5_7      *              0             0             1 
    86 r_1_7_8      *              1             0             1 
    87 u_1_7_8      *              0             0             1 
    88 r_2_7_8      *              1             0             1 
    89 u_2_7_8      *              0             0             1 

Integer feasibility conditions:

KKT.PE: max.abs.err = 4.55e-13 on row 162
        max.rel.err = 1.11e-16 on row 22
        High quality

KKT.PB: max.abs.err = 2.27e-13 on row 46
        max.rel.err = 2.29e-16 on row 46
        High quality

End of output
